
-11.54
-11.3
-11.08
-11.02
-10.9
-10.78
-10.6
-10.46
-10.36
-10.26
-10.24
-10.14
-10.1
-10.06
-9.96
-9.9
-9.82
-9.76
-9.68
-9.66
-9.66
-9.66
-9.66
-9.64
-9.64
-9.64
-9.64
-9.64
-9.64
-9.64
-9.64
-9.64
-9.62
-9.62
-9.62
-9.62
-9.62